# Solution for model GasLib-40
# Objective value = 1.0616215362958943e+01
loadshed[innode_1] 0
loadshed[innode_2] 0
loadshed[innode_3] 0
loadshed[innode_4] 0
loadshed[innode_5] 0
loadshed[innode_6] 0
loadshed[innode_7] 0
loadshed[innode_8] 0
loadshed[source_1] -2.3844174247766481e-01
loadshed[source_2] -0.0660212404981888
loadshed[source_3] 3.7161584975667139e-01
loadshed[sink_1] 0
loadshed[sink_2] 0
loadshed[sink_3] 0
loadshed[sink_4] 0
loadshed[sink_5] 0
loadshed[sink_6] 0
loadshed[sink_7] 0
loadshed[sink_8] 0
loadshed[sink_9] 0
loadshed[sink_10] 0
loadshed[sink_11] 0
loadshed[sink_12] 0.649144378881566
loadshed[sink_13] 0
loadshed[sink_14] 0
loadshed[sink_15] 0
loadshed[sink_16] 0
loadshed[sink_17] 0
loadshed[sink_18] 0
loadshed[sink_19] 0
loadshed[sink_20] 0
loadshed[sink_21] 0
loadshed[sink_22] 0
loadshed[sink_23] 0
loadshed[sink_24] 0
loadshed[sink_25] 0
loadshed[sink_26] 0
loadshed[sink_27] 0
loadshed[sink_28] 0
loadshed[sink_29] 0
flow[source_1,sink_3] 1.9578559907988915e+02
flow[innode_1,sink_16] 1.6354166666666970e+01
flow[innode_6,sink_13] 1.5137741803546227e+01
flow[sink_13,sink_14] -1.2164248631204408e+00
flow[sink_14,sink_10] -1.7570591529787109e+01
flow[sink_25,sink_26] 1.7633041581305281e+02
flow[sink_26,sink_9] 1.2397280675123361e+02
flow[sink_9,sink_18] 1.0761864008456693e+02
flow[sink_26,sink_4] 3.6003442395152533e+01
flow[sink_4,sink_20] -4.2011702157323043e+01
flow[sink_18,sink_6] 9.1264473417900263e+01
flow[sink_25,innode_8] -1.6307726574655280e+02
flow[sink_6,sink_7] 4.2201973417899808e+01
flow[sink_6,sink_22] 3.2708333333333641e+01
flow[sink_7,sink_24] 3.8446284637041060e+01
flow[sink_22,sink_1] 1.6354166666666970e+01
flow[sink_24,sink_21] 2.2092117970374392e+01
flow[sink_21,sink_12] 5.7379513037077245e+00
flow[sink_7,sink_5] -1.2598477885807270e+01
flow[sink_5,sink_17] -28.952644552474
flow[sink_17,sink_4] -6.1660977885809416e+01
flow[sink_17,sink_8] 1.6354166666668334e+01
flow[sink_3,sink_23] 16.3541666666697
flow[sink_8,sink_20] 0
flow[sink_25,sink_20] 5.8365868823989871e+01
flow[sink_25,sink_15] -1.0311092736070269e+02
flow[sink_15,sink_29] -6.6165085125591943e+01
flow[sink_29,sink_28] 1.6354166666667879e+01
flow[sink_29,sink_2] 6.9654175568443833e+01
flow[sink_2,sink_15] 5.3300008901777161e+01
flow[sink_29,innode_7] -1.6852759402736993e+02
flow[innode_4,sink_19] 0
flow[sink_19,innode_3] 0
flow[innode_4,innode_5] 9.9341424863120665e+01
flow[sink_27,innode_5] -9.9341424863120665e+01
flow[sink_27,sink_19] 8.2987258196454079e+01
flow[sink_10,sink_11] 3.2708333333333641e+01
flow[sink_10,innode_2] -6.6633091529787407e+01
flow[sink_10,innode_3] 0
flow[innode_6,sink_25] -1.5137741803546227e+01
flow[sink_11,innode_1] 1.6354166666666970e+01
flow[sink_19,innode_2] 6.6633091529787407e+01
flow[source_3,innode_4] 9.9341424863120665e+01
flow[source_2,innode_7] 1.6852759402736993e+02
flow[sink_3,innode_8] 1.6307726574655280e+02
pressure[innode_1] 74.6652649912126
pressure[innode_2] 7.8338800389846668e+01
pressure[innode_3] 7.8338800389846668e+01
pressure[innode_4] 81.01325
pressure[innode_5] 8.0944917729689593e+01
pressure[innode_6] 7.4067176936035253e+01
pressure[innode_7] 81.01325
pressure[innode_8] 8.0358813535085716e+01
pressure[source_1] 81.01325
pressure[source_2] 81.01325
pressure[source_3] 81.01325
pressure[sink_1] 4.5796162916700744e+01
pressure[sink_2] 7.4741378189205207e+01
pressure[sink_3] 8.0358813535085716e+01
pressure[sink_4] 5.7070758456244157e+01
pressure[sink_5] 5.2557516458804557e+01
pressure[sink_6] 4.7897240527088115e+01
pressure[sink_7] 47.3179080263399
pressure[sink_8] 5.4097194006824559e+01
pressure[sink_9] 5.4228236854364688e+01
pressure[sink_10] 7.4816966298816141e+01
pressure[sink_11] 74.6652649912126
pressure[sink_12] 1.0132500000000002e+00
pressure[sink_13] 7.3983725095223974e+01
pressure[sink_14] 7.3985901991133019e+01
pressure[sink_15] 7.4567365407273655e+01
pressure[sink_16] 7.3643615156394915e+01
pressure[sink_17] 5.4714279202238181e+01
pressure[sink_18] 5.0334273697393279e+01
pressure[sink_19] 7.8338800389846668e+01
pressure[sink_20] 6.0152932270259065e+01
pressure[sink_21] 3.0551271131573117e+00
pressure[sink_22] 4.6859932059055751e+01
pressure[sink_23] 8.0194095523425929e+01
pressure[sink_24] 3.2997767936536317e+00
pressure[sink_25] 7.4067176936035253e+01
pressure[sink_26] 6.1648329303432533e+01
pressure[sink_27] 8.0120567466541374e+01
pressure[sink_28] 7.6210514792241767e+01
pressure[sink_29] 7.6505797065858943e+01
interdiction[source_1,sink_3] 0
interdiction[innode_1,sink_16] 0
interdiction[innode_6,sink_13] 0
interdiction[sink_13,sink_14] 0
interdiction[sink_14,sink_10] 0
interdiction[sink_25,sink_26] 0
interdiction[sink_26,sink_9] 0
interdiction[sink_9,sink_18] 0
interdiction[sink_26,sink_4] 0
interdiction[sink_4,sink_20] 0
interdiction[sink_18,sink_6] 0
interdiction[sink_25,innode_8] 0
interdiction[sink_6,sink_7] 0
interdiction[sink_6,sink_22] 0
interdiction[sink_7,sink_24] 0
interdiction[sink_22,sink_1] 0
interdiction[sink_24,sink_21] 0
interdiction[sink_21,sink_12] 0
interdiction[sink_7,sink_5] 0
interdiction[sink_5,sink_17] 0
interdiction[sink_17,sink_4] 0
interdiction[sink_17,sink_8] 0
interdiction[sink_3,sink_23] 0
interdiction[sink_8,sink_20] 1
interdiction[sink_25,sink_20] 0
interdiction[sink_25,sink_15] 0
interdiction[sink_15,sink_29] 0
interdiction[sink_29,sink_28] 0
interdiction[sink_29,sink_2] 0
interdiction[sink_2,sink_15] 0
interdiction[sink_29,innode_7] 0
interdiction[innode_4,sink_19] 1
interdiction[sink_19,innode_3] 0
interdiction[innode_4,innode_5] 0
interdiction[sink_27,innode_5] 0
interdiction[sink_27,sink_19] 0
interdiction[sink_10,sink_11] 0
interdiction[sink_10,innode_2] 0
interdiction[sink_10,innode_3] 1
interdiction[innode_6,sink_25] 0
interdiction[sink_11,innode_1] 0
interdiction[sink_19,innode_2] 0
interdiction[source_3,innode_4] 0
interdiction[source_2,innode_7] 0
interdiction[sink_3,innode_8] 0
WCcheckFlow[source_1,sink_3] 39
WCcheckFlow[innode_1,sink_16] 1
WCcheckFlow[innode_6,sink_13] 13
WCcheckFlow[sink_13,sink_14] 12
WCcheckFlow[sink_14,sink_10] 11
WCcheckFlow[sink_25,sink_26] 15
WCcheckFlow[sink_26,sink_9] 12
WCcheckFlow[sink_9,sink_18] 11
WCcheckFlow[sink_26,sink_4] 2
WCcheckFlow[sink_4,sink_20] 1
WCcheckFlow[sink_18,sink_6] 10
WCcheckFlow[sink_25,innode_8] -36
WCcheckFlow[sink_6,sink_7] 7
WCcheckFlow[sink_6,sink_22] 2
WCcheckFlow[sink_7,sink_24] 3
WCcheckFlow[sink_22,sink_1] 1
WCcheckFlow[sink_24,sink_21] 2
WCcheckFlow[sink_21,sink_12] 1
WCcheckFlow[sink_7,sink_5] 3
WCcheckFlow[sink_5,sink_17] 2
WCcheckFlow[sink_17,sink_4] 0
WCcheckFlow[sink_17,sink_8] 1
WCcheckFlow[sink_3,sink_23] 1
WCcheckFlow[sink_8,sink_20] 0
WCcheckFlow[sink_25,sink_20] 0
WCcheckFlow[sink_25,sink_15] 6
WCcheckFlow[sink_15,sink_29] 5
WCcheckFlow[sink_29,sink_28] 1
WCcheckFlow[sink_29,sink_2] 1
WCcheckFlow[sink_2,sink_15] 0
WCcheckFlow[sink_29,innode_7] 2
WCcheckFlow[innode_4,sink_19] 0
WCcheckFlow[sink_19,innode_3] 1
WCcheckFlow[innode_4,innode_5] -2
WCcheckFlow[sink_27,innode_5] 3
WCcheckFlow[sink_27,sink_19] -4
WCcheckFlow[sink_10,sink_11] 3
WCcheckFlow[sink_10,innode_2] 7
WCcheckFlow[sink_10,innode_3] 0
WCcheckFlow[innode_6,sink_25] -14
WCcheckFlow[sink_11,innode_1] 2
WCcheckFlow[sink_19,innode_2] -6
WCcheckFlow[source_3,innode_4] -1
WCcheckFlow[source_2,innode_7] -1
WCcheckFlow[sink_3,innode_8] 37
